!PAL8 WB97M-V DEF2-TZVPP

* XYZFILE 0 1 NEB_product.xyz
