!PAL8 WB97M-V DEF2-TZVPP

%Method
  WriteJSONPropertyfile True
End

* XYZFILE 0 1 NEB_reactant.xyz
